sat
(:max-memory          17.37
 :memory              17.37
 :num-allocs          12815
 :rlimit-count        236
 :sls-constraints     15
 :sls-ddfw-flips      13.00
 :sls-ddfw-shifts     5.00
 :sls-dt-axioms       15
 :solve-eqs-elim-vars 3
 :solve-eqs-steps     3
 :total-time          0.01)
